************************************************************************
file with basedata            : cm410_.bas
initial value random generator: 1652306495
************************************************************************
projects                      :  1
jobs (incl. supersource/sink ):  18
horizon                       :  133
RESOURCES
  - renewable                 :  2   R
  - nonrenewable              :  2   N
  - doubly constrained        :  0   D
************************************************************************
PROJECT INFORMATION:
pronr.  #jobs rel.date duedate tardcost  MPM-Time
    1     16      0       24        8       24
************************************************************************
PRECEDENCE RELATIONS:
jobnr.    #modes  #successors   successors
   1        1          3           2   3   4
   2        4          2           7   9
   3        4          3           5   6  11
   4        4          3           5   9  12
   5        4          3           8  10  13
   6        4          1          14
   7        4          3           8  12  17
   8        4          1          14
   9        4          3          15  16  17
  10        4          2          15  17
  11        4          3          12  13  15
  12        4          1          16
  13        4          1          14
  14        4          1          16
  15        4          1          18
  16        4          1          18
  17        4          1          18
  18        1          0        
************************************************************************
REQUESTS/DURATIONS:
jobnr. mode duration  R 1  R 2  N 1  N 2
------------------------------------------------------------------------
  1      1     0       0    0    0    0
  2      1     4       0    2    7    0
         2     5       4    0    3    0
         3     8       3    0    0    9
         4    10       0    2    0    9
  3      1     6       6    0    0    3
         2     8       0   10    8    0
         3     9       0    6    5    0
         4     9       0    2    0    3
  4      1     1       0    8    9    0
         2     1       7    0    9    0
         3     2       5    0    0    5
         4     2       0    9    0    7
  5      1     1       0    9    3    0
         2     4       0    5    3    0
         3     5       5    0    1    0
         4     7       5    0    0    8
  6      1     3       7    0    4    0
         2     5       7    0    0    6
         3     7       0    9    0    3
         4     8       5    0    0    2
  7      1     1       0    8    0    8
         2     3       0    8    0    7
         3     8       7    0    0    6
         4     8       3    0    7    0
  8      1     2       3    0    5    0
         2     6       0    6    5    0
         3     9       0    4    5    0
         4    10       0    2    4    0
  9      1     2       5    0    0    6
         2     5       0    7    3    0
         3     7       5    0    0    4
         4     9       0    2    3    0
 10      1     1       0    2    7    0
         2     4       7    0    0    5
         3     8       0    2    5    0
         4     9       0    1    0    4
 11      1     2       0   10    0    6
         2     8       0    9   10    0
         3     8       5    0    8    0
         4     8       4    0   10    0
 12      1     2       0    9    0    3
         2     6      10    0    8    0
         3     7       5    0    6    0
         4     8       2    0    3    0
 13      1     9       0    5    0    7
         2     9       0    5    2    0
         3    10       0    4    0    8
         4    10       0    1    2    0
 14      1     6       0    4    0   10
         2     9       0    2    6    0
         3    10       0    1    2    0
         4    10       0    1    0    7
 15      1     2       9    0    0    4
         2     3       8    0    6    0
         3     4       5    0    5    0
         4     7       4    0    5    0
 16      1     1       9    0    0    3
         2     5       0    4    4    0
         3     6       5    0    0    2
         4     9       3    0    3    0
 17      1     1       0    6    6    0
         2     3       7    0    6    0
         3     7       0    4    0    7
         4     9       4    0    0    7
 18      1     0       0    0    0    0
************************************************************************
RESOURCEAVAILABILITIES:
  R 1  R 2  N 1  N 2
   17   18   50   47
************************************************************************
